unknown
(model
; cardinality of BoundSet is 2
(declare-sort BoundSet 0)
; rep: @uc_BoundSet_0
; rep: @uc_BoundSet_1
; cardinality of UnboundSet is 1
(declare-sort UnboundSet 0)
(declare-fun groundTerm_3 () UnboundSet)
(define-fun SkippedClassOneDay ((BOUND_VARIABLE_396 BoundSet) (BOUND_VARIABLE_397 BoundSet)) Bool true)
(define-fun WillBeUnemployed ((BOUND_VARIABLE_404 BoundSet)) Bool false)
(define-fun WillLiveAtHome ((BOUND_VARIABLE_396 BoundSet) (BOUND_VARIABLE_397 BoundSet)) Bool false)
(define-fun WillBeForRestOfLife ((BOUND_VARIABLE_396 BoundSet) (BOUND_VARIABLE_397 BoundSet)) Bool false)
)
sat
(model
; cardinality of BoundSet is 1
(declare-sort BoundSet 0)
; rep: @uc_BoundSet_0
; cardinality of UnboundSet is 1
(declare-sort UnboundSet 0)
(declare-fun groundTerm_5 () UnboundSet)
(define-fun SkippedClassOneDay ((BOUND_VARIABLE_450 BoundSet) (BOUND_VARIABLE_451 BoundSet)) Bool true)
(define-fun WillBeUnemployed ((BOUND_VARIABLE_455 BoundSet)) Bool false)
(define-fun WillLiveAtHome ((BOUND_VARIABLE_450 BoundSet) (BOUND_VARIABLE_451 BoundSet)) Bool true)
(define-fun WillBeForRestOfLife ((BOUND_VARIABLE_450 BoundSet) (BOUND_VARIABLE_451 BoundSet)) Bool true)
)
